c User generated cnf file
p cnf 14 42
4 -4 7 0 
9 1 -1 0 
5 -5 10 0 
13 5 -5 0 
1 6 -7 0 
11 7 -2 0 
8 3 -1 0 
7 7 -4 0 
-13 2 6 0 
3 10 -7 0 
13 -10 14 0 
3 10 -2 0 
-5 3 5 0 
13 -3 13 0 
7 -4 14 0 
13 -2 6 0 
13 -1 11 0 
10 -11 9 0 
3 13 -6 0 
-3 1 6 0 
7 -7 10 0 
3 11 -11 0 
12 -9 11 0 
4 -3 3 0 
-5 12 10 0 
7 -8 9 0 
3 -9 13 0 
13 11 -3 0 
2 -5 1 0 
2 -14 14 0 
13 6 -10 0 
4 -13 8 0 
3 7 -1 0 
-10 2 9 0 
13 -11 14 0 
-12 2 14 0 
6 -10 4 0 
13 -7 1 0 
13 -9 8 0 
1 -2 1 0 
4 13 -5 0 
4 2 -8 0 
